41
71
16
66
63
22
30
4
53
69
7
58
33
9
80
75
29
49
78
90
32
57
67
27
97
62
96
95
11
65
59
26
82
43
19
61
87
40
77
28
73
36
14
94
45
21
15
10
68
39
74
48
81
83
8
85
17
98
51
2
6
72
60
79
42
44
5
12
35
52
13
34
76
46
18
89
1
3
99
55
91
84
64
47
0
24
37
92
25
86
20
56
88
23
31
38
54
50
70
93
